AES/1_2_8/ssaes_r1-20_c2_rw1_e8_f0_k1-20_aes_1base_box_aes_mc_bidirectional/ExperimentMinisat_r8_k16cnf_2011-12-02-182602/Result
WARNING: for repeatability, setting FPU to use double precision
============================[ Problem Statistics ]=============================
|                                                                             |
|  Number of variables:           688                                         |
|  Number of clauses:          107152                                         |
|  Parse time:                   0.06 s                                       |
|  Eliminated clauses:           0.01 Mb                                      |
|  Simplification time:          3.62 s                                       |
|                                                                             |
=============================[ Search Statistics ]==============================
| Conflicts  |          ORIGINAL         |          LEARNT          | Progress |
|            |    Vars  Clauses Literals |    Limit  Clauses Lit/Cl |          |
================================================================================
|        100 |     448   106544   725536 |    39066      100     14 | 13.954 % |
|        250 |     448   106544   725536 |    42972      250     15 | 13.954 % |
|        475 |     448   106544   725536 |    47270      475     15 | 13.954 % |
|        812 |     448   106544   725536 |    51997      812     17 | 13.954 % |
|       1318 |     448   106544   725536 |    57196     1318     16 | 13.954 % |
|       2077 |     448   106544   725536 |    62916     2077     16 | 13.954 % |
|       3216 |     448   106544   725536 |    69208     3216     16 | 13.954 % |
|       4924 |     448   106544   725536 |    76128     4924     17 | 13.954 % |
|       7486 |     448   106544   725536 |    83741     7486     16 | 13.954 % |
===============================================================================
restarts              : 41
conflicts             : 9566           (825 /sec)
decisions             : 11413          (0.00 % random) (985 /sec)
propagations          : 1886179        (162767 /sec)
conflict literals     : 148945         (41.37 % deleted)
Memory used           : 18.00 MB
CPU time              : 11.5882 s

SATISFIABLE
